p cnf 14 25
2 9 -4 3 0
-7 3 7 -12 -13 -9 7 0
-12 9 0
9 4 -10 -2 -9 -12 -2 6 10 -4 0
-1 14 -9 0
6 1 7 14 -1 -11 -6 9 -8 -5 13 -11 -3 0
4 0
-9 1 -11 -1 -12 9 0
-6 5 7 6 -4 8 2 9 -7 0
-2 0
-7 0
-4 -9 8 -3 2 0
-9 1 -9 3 -4 -3 -8 -3 2 -7 -8 0
-1 -5 -4 -1 -3 10 -9 12 11 9 8 7 0
-12 -7 9 -6 0
9 -5 -1 -7 -11 0
9 -12 -2 -4 -3 -8 0
-5 9 8 10 -5 3 -12 -1 -9 0
3 3 0
3 -11 7 11 -7 -3 -14 11 -3 -6 4 8 12 0
3 -4 1 -9 1 7 7 -9 -11 0
13 -9 -3 8 7 14 0
-2 5 5 6 -11 2 5 -8 -1 4 -2 2 0
-13 -8 -10 -6 14 -5 -5 13 0
3 -12 -3 10 6 2 7 -2 0